38
75
52	8
51	9
50	7
49	11
48	9
47	12
46	11
45	12
44	10
43	9
42	9
41	10
40	12
39	11
38	16
37	7
36	17
35	9
34	15
33	8
32	12
31	11
30	18
29	12
28	10
27	10
26	7
25	15
24	8
23	12
22	12
21	7
20	9
19	8
18	10
17	11
16	4
15	12
